words_hard_train/9979.qaiger
aag 23 10 0 1 13
2
4
12
14
18
20
24
26
34
36
47
6 3 4
8 2 5
10 7 9
16 13 15
22 19 21
28 25 27
30 22 28
32 16 30
38 35 36
40 34 37
42 39 41
44 32 42
46 10 45
i0 1 x1[7]
i1 2 y2[1]
i2 1 x1[4]
i3 1 x1[5]
i4 1 x1[2]
i5 1 x1[3]
i6 1 x1[0]
i7 1 x1[1]
i8 1 x1[6]
i9 2 y2[0]
o0 bv[0]
c
simplified
  <=
    unary minus
      1
    xor
      << 6
        2 y2
      invert
        1 x1
