words_hard_train/9979.qaiger.qdimacs
p cnf 23 40
a 1 6 7 9 10 12 13 17 0
e 2 3 4 5 8 11 14 15 16 18 19 20 21 22 23 0
1 -2 3 0
-1 -3 0
2 -3 0
-1 2 4 0
1 -4 0
-2 -4 0
3 4 5 0
-3 -5 0
-4 -5 0
6 7 8 0
-6 -8 0
-7 -8 0
9 10 11 0
-9 -11 0
-10 -11 0
12 13 14 0
-12 -14 0
-13 -14 0
-11 -14 15 0
11 -15 0
14 -15 0
-8 -15 16 0
8 -16 0
15 -16 0
17 -18 19 0
-17 -19 0
18 -19 0
-17 18 20 0
17 -20 0
-18 -20 0
19 20 21 0
-19 -21 0
-20 -21 0
-16 -21 22 0
16 -22 0
21 -22 0
-5 22 23 0
5 -23 0
-22 -23 0
-23 0
